
Gurobi 9.1.2 (win64) logging started Tue Dec 14 15:43:44 2021

Gurobi Optimizer version 9.1.2 build v9.1.2rc0 (win64)
Thread count: 8 physical cores, 8 logical processors, using up to 8 threads
Optimize a model with 1 rows, 961 columns and 960 nonzeros
Model fingerprint: 0x2cde60f4
Variable types: 1 continuous, 960 integer (960 binary)
Coefficient statistics:
  Matrix range     [1e+00, 1e+01]
  Objective range  [1e+00, 1e+00]
  Bounds range     [8e+01, 8e+01]
  RHS range        [1e+01, 1e+01]

Gurobi 9.1.2 (win64) logging started Tue Dec 14 15:44:28 2021

Gurobi Optimizer version 9.1.2 build v9.1.2rc0 (win64)
Thread count: 8 physical cores, 8 logical processors, using up to 8 threads
Optimize a model with 1 rows, 961 columns and 960 nonzeros
Model fingerprint: 0x9c55e09f
Variable types: 1 continuous, 960 integer (960 binary)
Coefficient statistics:
  Matrix range     [1e+00, 1e+01]
  Objective range  [1e+00, 1e+00]
  Bounds range     [8e+01, 8e+01]
  RHS range        [1e+01, 1e+01]
Presolve time: 0.00s
Presolved: 1 rows, 961 columns, 960 nonzeros
Variable types: 1 continuous, 960 integer (960 binary)

Root simplex log...

Iteration    Objective       Primal Inf.    Dual Inf.      Time
       0   -7.8685770e+01   1.153341e-01   0.000000e+00     27s
       7   -4.8620543e+01   0.000000e+00   0.000000e+00     27s

Root relaxation: objective -4.862054e+01, 7 iterations, 0.00 seconds

    Nodes    |    Current Node    |     Objective Bounds      |     Work
 Expl Unexpl |  Obj  Depth IntInf | Incumbent    BestBd   Gap | It/Node Time

     0     0  -48.62054    0    1          -  -48.62054      -     -   27s
H    0     0                       0.9965117  -48.62054  4979%     -   33s
H    0     0                       0.9963039  -48.62054  4980%     -   37s
     0     0  -48.62054    0    1    0.99630  -48.62054  4980%     -   53s
     0     0  -17.84104    0    6    0.99630  -17.84104  1891%     -   66s
     0     0  -17.84104    0    6    0.99630  -17.84104  1891%     -   83s
     0     0  -17.84104    0    6    0.99630  -17.84104  1891%     -   86s
     0     0  -17.84104    0    6    0.99630  -17.84104  1891%     -   91s
     0     0  -16.91751    0   10    0.99630  -16.91751  1798%     -   93s
     0     0  -16.91751    0   10    0.99630  -16.91751  1798%     -   98s
     0     0  -16.91751    0   10    0.99630  -16.91751  1798%     -  104s
     0     0  -16.33954    0   12    0.99630  -16.33954  1740%     -  118s
     0     0  -16.33254    0   12    0.99630  -16.33254  1739%     -  118s
     0     0  -16.08590    0   12    0.99630  -16.08590  1715%     -  118s
     0     0  -15.81349    0   14    0.99630  -15.81349  1687%     -  118s
     0     0  -15.81349    0   14    0.99630  -15.81349  1687%     -  120s
     0     0  -15.81349    0   14    0.99630  -15.81349  1687%     -  125s
     0     0  -15.81349    0   14    0.99630  -15.81349  1687%     -  131s
     0     0  -15.81349    0   14    0.99630  -15.81349  1687%     -  138s
     0     0  -15.81349    0   14    0.99630  -15.81349  1687%     -  141s
     0     0  -15.81349    0   14    0.99630  -15.81349  1687%     -  146s
     0     0  -15.81349    0   14    0.99630  -15.81349  1687%     -  154s
     0     0  -15.81349    0   14    0.99630  -15.81349  1687%     -  158s
     0     0  -14.28334    0   10    0.99630  -14.28334  1534%     -  170s
     0     0  -14.28334    0   10    0.99630  -14.28334  1534%     -  175s
     0     0  -14.28334    0   10    0.99630  -14.28334  1534%     -  180s
     0     0  -14.28334    0   11    0.99630  -14.28334  1534%     -  184s
     0     0  -14.28334    0   11    0.99630  -14.28334  1534%     -  187s
     0     0  -14.28334    0   11    0.99630  -14.28334  1534%     -  190s
     0     0  -14.28334    0   11    0.99630  -14.28334  1534%     -  197s
     0     0  -14.28334    0   11    0.99630  -14.28334  1534%     -  201s
     0     0  -14.28334    0   11    0.99630  -14.28334  1534%     -  206s
     0     0  -14.28334    0   11    0.99630  -14.28334  1534%     -  212s
     0     0  -14.19334    0   12    0.99630  -14.19334  1525%     -  212s
     0     0  -13.87795    0   14    0.99630  -13.87795  1493%     -  213s
     0     0  -13.87795    0   14    0.99630  -13.87795  1493%     -  215s
     0     0  -13.87795    0   14    0.99630  -13.87795  1493%     -  220s
     0     0  -13.87795    0   14    0.99630  -13.87795  1493%     -  226s
     0     0  -13.75572    0   13    0.99630  -13.75572  1481%     -  234s
     0     0  -13.75572    0   13    0.99630  -13.75572  1481%     -  237s
     0     0  -13.75572    0   13    0.99630  -13.75572  1481%     -  242s
     0     0  -13.75572    0   13    0.99630  -13.75572  1481%     -  245s
     0     0  -13.74365    0   15    0.99630  -13.74365  1479%     -  248s
     0     0  -13.74365    0   15    0.99630  -13.74365  1479%     -  250s
     0     0  -13.74365    0   15    0.99630  -13.74365  1479%     -  255s
     0     0  -13.74365    0   15    0.99630  -13.74365  1479%     -  260s
     0     0  -13.74365    0   15    0.99630  -13.74365  1479%     -  269s
     0     0  -13.74365    0   15    0.99630  -13.74365  1479%     -  272s
     0     0  -13.74365    0   15    0.99630  -13.74365  1479%     -  277s
     0     0  -13.74365    0   15    0.99630  -13.74365  1479%     -  282s
     0     0  -13.74365    0   15    0.99630  -13.74365  1479%     -  285s
     0     2  -13.68025    0   14    0.99630  -13.68025  1473%     -  287s
     7     8  -11.79028    3   16    0.99630  -11.79028  1283%  11.7  290s
*   19    12               4       0.9954096  -10.60440  1165%   8.5  299s
    36    28   -8.52788    7   15    0.99541   -9.69982  1074%   9.0  302s
    82    71   -8.95286   12   11    0.99541   -9.69792  1074%   7.6  305s
   172   174   -5.47803   22   13    0.99541   -9.69792  1074%   6.3  320s
   207   177   -2.85538   24    7    0.99541   -9.69792  1074%   6.0  330s
   256   244   -5.11987   33   11    0.99541   -9.69792  1074%   5.7  340s
   376   353   -4.36703   48   11    0.99541   -9.69792  1074%   5.3  360s
   456   433   -4.10688   58   13    0.99541   -9.69792  1074%   5.2  371s
   552   519   -3.72291   70   13    0.99541   -9.69792  1074%   5.1  379s
   660   606   -3.22456   84   10    0.99541   -9.69792  1074%   4.9  385s
   791   728   -2.65210  101    5    0.99541   -9.69792  1074%   5.0  406s
   950   807    0.89447  119    9    0.99541   -9.69792  1074%   5.1  422s
   989   808   -2.84641   44   10    0.99541   -9.69792  1074%   5.1  439s
  1039   964    0.93001  120   12    0.99541   -8.78235   982%   5.2  448s
  1247  1163   -4.01387   28    9    0.99541   -8.78235   982%   5.1  470s
  1504  1184   -4.08045   12   14    0.99541   -8.78235   982%   5.1  505s
  1506  1185   -2.32932   31   11    0.99541   -8.78235   982%   5.1  519s
  1507  1186    0.33508   35   14    0.99541   -8.78235   982%   5.1  550s
  1510  1188   -3.71096   42   14    0.99541   -8.78235   982%   5.1  565s
  1513  1190    0.23681   74   14    0.99541   -8.78235   982%   5.1  580s
  1516  1192   -2.53611   42   14    0.99541   -8.78235   982%   5.1  598s
  1520  1195   -2.40814   10   16    0.99541   -8.75386   979%   5.1  648s
H 1555  1149                       0.9954096   -8.75386   979%   5.4  654s
  1593  1173   -6.83040   23   15    0.99541   -8.08843   913%   5.4  662s
  1609  1180   -6.69206   24   15    0.99541   -7.70550   874%   5.4  665s
  1633  1186   -3.88708   25    5    0.99541   -7.62913   866%   5.4  677s
  1657  1190   -5.43795   27   16    0.99541   -7.58407   862%   5.4  683s
  1689  1205   -5.03395   29   13    0.99541   -7.52763   856%   5.4  701s
  1729  1237   -3.21486   31    4    0.99541   -7.52763   856%   5.4  707s
  1784  1238   -3.64501   34    7    0.99541   -7.52763   856%   5.4  710s
H 1793  1178                       0.9954096   -7.52763   856%   5.4  716s
  1807  1211   -3.76845   38    4    0.99541   -7.52763   856%   5.4  722s
  1868  1238   -1.93723   41    -    0.99541   -7.52763   856%   5.4  737s
  1937  1246   -0.60401   46    2    0.99541   -7.52763   856%   5.4  756s
  2018  1257     cutoff   51         0.99541   -7.52763   856%   5.4  799s
  2113  1289    0.07085   59    6    0.99541   -7.04242   807%   5.3  829s
  2230  1352    0.20522   63    -    0.99541   -6.91001   794%   5.3  866s
  2363  1438    0.20522   63    -    0.99541   -6.56459   759%   5.3  878s
  2523  1507    0.24726   63    4    0.99541   -6.55285   758%   5.2  890s
  2711  1522     cutoff   66         0.99541   -6.45940   749%   5.1  921s
  2932  1648   -2.76020   42    3    0.99541   -6.08771   712%   5.1  987s
  3172  1683   -1.00882   35    -    0.99541   -5.98902   702%   5.1 1051s
  3362  1773   -0.82443   47    2    0.99541   -5.93437   696%   5.0 1090s
  3575  1813    0.60807   56    3    0.99541   -5.89617   692%   5.0 1130s
  3759  1906    0.80621   59    2    0.99541   -5.78166   681%   5.0 1182s
  3987  2002     cutoff   61         0.99541   -5.69723   672%   5.0 1232s
  4204  2061   -4.02697   44    9    0.99541   -5.57212   660%   5.0 1263s
  4406  2133   -1.13204   75    -    0.99541   -5.50462   653%   5.0 1328s
  4612  2214     cutoff   77         0.99541   -5.43776   646%   5.0 1387s
  4798  2304   -1.75176   58    2    0.99541   -5.38105   641%   5.1 1413s
  5005  2460    0.51146   61    -    0.99541   -5.34965   637%   5.1 1471s
  5223  2608     cutoff   61         0.99541   -5.28698   631%   5.0 1509s
  5426  2771   -3.13621   55    7    0.99541   -5.26463   629%   5.0 1555s
  5629  2861   -2.82930   81    3    0.99541   -5.25226   628%   5.0 1574s
  5811  2975   -0.72031   39    -    0.99541   -5.14001   616%   5.0 1641s
  5995  3121   -0.84123   54    2    0.99541   -5.13353   616%   5.0 1711s
  6200  3272   -0.10689   57    3    0.99541   -5.08352   611%   5.0 1762s
  6411  3400     cutoff   58         0.99541   -5.04186   607%   5.0 1812s
  6598  3546     cutoff   53         0.99541   -5.00552   603%   5.0 1853s
  6790  3691   -1.11592   42    3    0.99541   -4.97762   600%   5.0 1902s
  7034  3800     cutoff   45         0.99541   -4.91871   594%   4.9 1989s
